175
336
31
336
266
108
132
34
102
280
90
470
36
200
172
320
490
117
252
450
70
520
369
93
384
74
234
132
231
300
160
116
368
72
200
42
279
343
190
270
225
102
357
410
150
141
37
104
430
288
200
78
112
276
175
520
42
62
240
222
270
440
231
408
40
203
470
108
50
430
192
441
304
112
45
204
260
410
270
144
185
104
396
297
250
156
29
138
70
200
378
62
343
304
243
44
238
357
200
120
94
216
234
430
32
100
273
140
450
105
468
82
186
48
148
216
44
66
400
40
290
138
252
125
42
256
49
152
28
405
306
51
369
60
376
111
182
129
297
150
390
196
414
105
260
210
279
288
38
27
352
102
459
360
290
282
360
75
344
160
98
78
196
405
35
364
410
60
480
259
52
132
264
350
280
87
46
315
25
378
93
49
152
270
90
272
51
123
210
188
180
130
215
128
300
390
196
138
175
312
369
